c This is an instance of the exact track of PACE 2020 Challenge, see https://pacechallenge.org/2020/ 
c TYPE: biology 
c ORIGIN: networkrepository.com 
c DESCRIPTION: ENZYMES is a dataset of protein tertiary structures obtained from (Borgwardt et al., 2005)  consisting of 600 enzymes from the BRENDA enzyme database (Schomburg et al., 2004). Refernces: K. M. Borgwardt, C. S. Ong, S. Schoenauer, S. V. N. Vishwanathan, A. J. Smola, and H. P. Kriegel. Protein function prediction via graph kernels. Bioinformatics, 21(Suppl 1):i47–i56, Jun 2005. I. Schomburg, A. Chang, C. Ebeling, M. Gremse, C. Heldt, G. Huhn, and D. Schomburg. Brenda, the enzyme database: updates and major new developments. Nucleic Acids Research, 32D:431–433, 2016 
p tdp 57 79
42 43
42 44
42 18
42 45
43 19
43 45
28 29
28 27
29 47
29 30
29 41
29 32
7 38
7 46
7 6
7 26
7 5
38 40
38 22
22 26
22 37
22 24
22 21
22 36
26 23
26 3
37 3
8 9
8 10
8 57
18 19
18 14
18 16
19 44
19 17
19 35
19 45
44 48
23 25
23 24
23 20
34 35
34 33
48 30
13 41
13 12
13 10
49 54
49 50
49 53
49 55
49 56
49 57
54 51
54 52
54 53
50 53
50 51
50 52
31 32
31 33
1 2
1 5
1 4
1 57
2 3
16 17
16 15
6 4
40 39
12 14
12 11
20 21
20 24
14 10
5 4
30 27
3 36
11 15
